# acetone CCSD(T)/aug-cc-pVTZ SPE

! CCSD(T) aug-cc-pVTZ TightSCF PAL8
%maxcore 2000

* xyzfile 0 1 acetone_MP2_aug-cc-pVTZ_OPT.xyz

