
%pal
  nprocs 6
end
%maxcore 2000

! CCSD aug-cc-pVTZ VeryTightSCF
! RIJCOSX def2/J aug-cc-pVTZ/C

%mdci
  density unrelaxed
end

* xyzfile 0 1 hydrogen_sulfide.xyz

