
%pal
  nprocs 6
end
%maxcore 2000

! B3LYP aug-cc-pVTZ VeryTightSCF
! RIJCOSX def2/J

* xyzfile 0 2 nitrogen_monoxide.xyz

