# Ammonia geom opt with MP2/aug-cc-pVTZ

! MP2 aug-cc-pVTZ Opt PAL4

*xyzfile 0 1 ammonia_B3LYP_cc-pVTZ_OPT.xyz
