# Ammonia SPE with DLPNO-CCSD(T)/aug-cc-pVTZ

! DLPNO-CCSD(T) aug-cc-pVTZ aug-cc-pVTZ/C PAL4

*xyzfile 0 1 ammonia_MP2_aug-cc-pVTZ_OPT.xyz
