# Ammoniar geom opt with B3LYP/cc-pVDZ

! B3LYP cc-pVDZ Opt PAL4

*xyzfile 0 1 ammonia.xyz
