# Water geom opt with B3LYP/cc-pVDZ

! B3LYP cc-pVDZ Opt PAL4

*xyz 0 1
  O       -0.01314       -0.01859        0.00000
  H       -0.29943        0.91863        0.00000
  H        0.96591        0.02391        0.00000
*