# carbon_monoxide CCSD(T)/aug-cc-pVTZ SPE

! CCSD(T) aug-cc-pVTZ TightSCF PAL4

* xyzfile 0 1 carbon_monoxide_MP2_aug-cc-pVTZ_OPT.xyz

