
%pal
  nprocs 6
end
%maxcore 2000

! PBE aug-cc-pVTZ VeryTightSCF
! RIJCOSX def2/J

* xyzfile 0 1 ammonia.xyz

