# furan CCSD(T)/aug-cc-pVTZ SPE

! CCSD(T) aug-cc-pVTZ TightSCF PAL8
%maxcore 1000

* xyzfile 0 1 furan_MP2_aug-cc-pVTZ_OPT.xyz

