# furan OPT with B3LYP/cc-pVTZ

! B3LYP cc-pVTZ TightSCF Opt PAL8
%maxcore 1000

* xyzfile 0 1 furan_B3LYP_cc-pVDZ_OPT.xyz

