# acetaldehyde DLPNO-CCSD(T)/aug-cc-pVTZ SPE

! DLPNO-CCSD(T) aug-cc-pVTZ aug-cc-pVTZ/C TightSCF PAL16
%maxcore 1000

* xyzfile 0 1 acetaldehyde_MP2_aug-cc-pVTZ_OPT.xyz

