# acetaldehyde CCSD/aug-cc-pVTZ SPE

! CCSD aug-cc-pVTZ TightSCF PAL16
%maxcore 1000

* xyzfile 0 1 acetaldehyde_MP2_aug-cc-pVTZ_OPT.xyz

