# acetaldehyde OPT with B3LYP/cc-pVDZ

! B3LYP cc-pVDZ TightSCF Opt PAL16
%maxcore 1000

* xyzfile 0 1 acetaldehyde.xyz

