# Water SPE  with B3LYP/cc-pVTZ

! CCSD(T) aug-cc-pVTZ TightSCF PAL4

* xyzfile 0 1 water_MP2_aug-cc-pVTZ_OPT.xyz
