# Water geom opt with B3LYP/cc-pVTZ

! B3LYP cc-pVTZ Opt PAL4

* xyzfile 0 1 water_b3lyp_cc-pVDZ.xyz
