# Water SPE  with B3LYP/cc-pVTZ

! DLPNO-CCSD aug-cc-pVTZ aug-cc-pVTZ/C TightSCF PAL4

* xyzfile 0 1 water_MP2_aug-cc-pVTZ_OPT.xyz
