# nitrogen_mono MP2/aug-cc-pVTZ Optimization

! MP2 aug-cc-pVTZ TightSCF Opt PAL4

* xyzfile 0 2 nitrogen_mono_B3LYP_cc-pVTZ_OPT.xyz

