# nitrogen_monoxide OPT with B3LYP/cc-pVTZ

! B3LYP cc-pVTZ TightSCF Opt PAL4

* xyzfile 0 2 nitrogen_monoxide_B3LYP_cc-pVDZ_OPT.xyz

