# nitrogen_mono CCSD(T)/aug-cc-pVTZ SPE

! CCSD(T) aug-cc-pVTZ TightSCF PAL4

* xyzfile 0 2 nitrogen_mono_MP2_aug-cc-pVTZ_OPT.xyz

