
%pal
  nprocs 6
end
%maxcore 2000

! HF aug-cc-pVTZ VeryTightSCF
! RIJCOSX def2/J

* xyzfile 0 1 furan.xyz

