# methanol CCSD(T)/aug-cc-pVTZ SPE

! CCSD(T) aug-cc-pVTZ TightSCF PAL4
%maxcore 1000

* xyzfile 0 1 methanol_MP2_aug-cc-pVTZ_OPT.xyz

