# methanol DLPNO-CCSD/aug-cc-pVTZ SPE

! DLPNO-CCSD aug-cc-pVTZ aug-cc-pVTZ/C TightSCF PAL4
%maxcore 1000

* xyzfile 0 1 methanol_MP2_aug-cc-pVTZ_OPT.xyz

