# methanol DLPNO-CCSD(T)/aug-cc-pVTZ SPE

! DLPNO-CCSD(T) aug-cc-pVTZ aug-cc-pVTZ/C TightSCF PAL4
%maxcore 1000

* xyzfile 0 1 methanol_MP2_aug-cc-pVTZ_OPT.xyz

