
%pal
  nprocs 6
end
%maxcore 2000

! PBE0 def2-TZVP TightOPT Freq
! RIJCOSX def2/J

* xyzfile 0 2 nitrogen_monoxide.xyz

