# hydrogen_sulfide CCSD/aug-cc-pVTZ SPE

! CCSD aug-cc-pVTZ TightSCF PAL8
%maxcore 1000

* xyzfile 0 1 hydrogen_sulfide_MP2_aug-cc-pVTZ_OPT.xyz

