
%pal
  nprocs 6
end
%maxcore 2000

! DLPNO-CCSD aug-cc-pVTZ VeryTightSCF
! RIJCOSX def2/J aug-cc-pVTZ/C
! TightPNO

%mdci
  density unrelaxed
end

* xyzfile 0 1 dimethyl_ether.xyz

