# phosphine OPT with B3LYP/cc-pVDZ

! B3LYP cc-pVDZ TightSCF Opt PAL8
%maxcore 1000

* xyzfile 0 1 phosphine.xyz

